\ENCODING=ISO-8859-1
\Problem name: ilog.cplex

Maximize
 obj: 627 x(0)#0 + 780 x(1)#1 + 517 x(2)#2 + 751 x(3)#3 + 1016 x(4)#4
      + 683 x(5)#5 + 486 x(6)#6 + 980 x(7)#7 + 865 x(8)#8 + 636 x(9)#9
      + 640 x(10)#10 + 880 x(11)#11 + 760 x(12)#12 + 700 x(13)#13
      + 719 x(14)#14 + 812 x(15)#15 + 1090 x(16)#16 + 538 x(17)#17
      + 620 x(18)#18 + 544 x(19)#19 + 593 x(20)#20 + 1158 x(21)#21
      + 378 x(22)#22 + 407 x(23)#23 + 905 x(24)#24 + 662 x(25)#25
      + 772 x(26)#26 + 673 x(27)#27 + 814 x(28)#28 + 847 x(29)#29
      + 772 x(30)#30 + 786 x(31)#31 + 870 x(32)#32 + 257 x(33)#33
      + 1082 x(34)#34 + 967 x(35)#35 + 772 x(36)#36 + 887 x(37)#37
      + 787 x(38)#38 + 1033 x(39)#39 + 964 x(40)#40 + 629 x(41)#41
      + 1028 x(42)#42 + 570 x(43)#43 + 1043 x(44)#44 + 862 x(45)#45
      + 626 x(46)#46 + 534 x(47)#47 + 916 x(48)#48 + 852 x(49)#49
      + 955 x(50)#50 + 858 x(51)#51 + 976 x(52)#52 + 493 x(53)#53
      + 769 x(54)#54 + 530 x(55)#55 + 599 x(56)#56 + 336 x(57)#57
      + 1142 x(58)#58 + 524 x(59)#59 + 831 x(60)#60 + 389 x(61)#61
      + 765 x(62)#62 + 790 x(63)#63 + 940 x(64)#64 + 391 x(65)#65
      + 964 x(66)#66 + 523 x(67)#67 + 853 x(68)#68 + 638 x(69)#69
      + 523 x(70)#70 + 832 x(71)#71 + 810 x(72)#72 + 468 x(73)#73
      + 595 x(74)#74 + 811 x(75)#75 + 953 x(76)#76 + 1036 x(77)#77
      + 537 x(78)#78 + 736 x(79)#79 + 816 x(80)#80 + 627 x(81)#81
      + 605 x(82)#82 + 803 x(83)#83 + 769 x(84)#84 + 491 x(85)#85
      + 677 x(86)#86 + 657 x(87)#87 + 649 x(88)#88 + 607 x(89)#89
      + 829 x(90)#90 + 879 x(91)#91 + 757 x(92)#92 + 897 x(93)#93
      + 634 x(94)#94 + 624 x(95)#95 + 542 x(96)#96 + 936 x(97)#97
      + 1080 x(98)#98 + 927 x(99)#99 + 797 x(100)#100 + 887 x(101)#101
      + 615 x(102)#102 + 520 x(103)#103 + 891 x(104)#104 + 778 x(105)#105
      + 1040 x(106)#106 + 770 x(107)#107 + 816 x(108)#108 + 1014 x(109)#109
      + 801 x(110)#110 + 537 x(111)#111 + 593 x(112)#112 + 1108 x(113)#113
      + 958 x(114)#114 + 512 x(115)#115 + 610 x(116)#116 + 1007 x(117)#117
      + 760 x(118)#118 + 879 x(119)#119 + 871 x(120)#120 + 725 x(121)#121
      + 807 x(122)#122 + 572 x(123)#123 + 736 x(124)#124 + 505 x(125)#125
      + 703 x(126)#126 + 497 x(127)#127 + 1064 x(128)#128 + 634 x(129)#129
      + 669 x(130)#130 + 813 x(131)#131 + 1080 x(132)#132 + 856 x(133)#133
      + 528 x(134)#134 + 1062 x(135)#135 + 988 x(136)#136 + 799 x(137)#137
      + 754 x(138)#138 + 946 x(139)#139 + 523 x(140)#140 + 1060 x(141)#141
      + 851 x(142)#142 + 573 x(143)#143 + 802 x(144)#144 + 592 x(145)#145
      + 910 x(146)#146 + 1043 x(147)#147 + 839 x(148)#148 + 823 x(149)#149
      + 897 x(150)#150 + 593 x(151)#151 + 815 x(152)#152 + 1191 x(153)#153
      + 679 x(154)#154 + 884 x(155)#155 + 772 x(156)#156 + 391 x(157)#157
      + 976 x(158)#158 + 641 x(159)#159 + 390 x(160)#160 + 459 x(161)#161
      + 424 x(162)#162 + 694 x(163)#163 + 642 x(164)#164 + 528 x(165)#165
      + 515 x(166)#166 + 709 x(167)#167 + 791 x(168)#168 + 1018 x(169)#169
      + 685 x(170)#170 + 460 x(171)#171 + 838 x(172)#172 + 1053 x(173)#173
      + 833 x(174)#174 + 819 x(175)#175 + 896 x(176)#176 + 343 x(177)#177
      + 964 x(178)#178 + 603 x(179)#179 + 408 x(180)#180 + 1000 x(181)#181
      + 916 x(182)#182 + 832 x(183)#183 + 512 x(184)#184 + 878 x(185)#185
      + 586 x(186)#186 + 758 x(187)#187 + 696 x(188)#188 + 493 x(189)#189
      + 941 x(190)#190 + 742 x(191)#191 + 691 x(192)#192 + 789 x(193)#193
      + 199 x(194)#194 + 747 x(195)#195 + 485 x(196)#196 + 976 x(197)#197
      + 475 x(198)#198 + 722 x(199)#199 + 690 x(200)#200 + 821 x(201)#201
      + 893 x(202)#202 + 923 x(203)#203 + 585 x(204)#204 + 243 x(205)#205
      + 909 x(206)#206 + 980 x(207)#207 + 1082 x(208)#208 + 837 x(209)#209
      + 632 x(210)#210 + 625 x(211)#211 + 698 x(212)#212 + 315 x(213)#213
      + 811 x(214)#214 + 445 x(215)#215 + 860 x(216)#216 + 672 x(217)#217
      + 507 x(218)#218 + 948 x(219)#219 + 535 x(220)#220 + 490 x(221)#221
      + 1020 x(222)#222 + 1095 x(223)#223 + 472 x(224)#224 + 709 x(225)#225
      + 946 x(226)#226 + 1012 x(227)#227 + 824 x(228)#228 + 641 x(229)#229
      + 560 x(230)#230 + 990 x(231)#231 + 560 x(232)#232 + 1051 x(233)#233
      + 691 x(234)#234 + 635 x(235)#235 + 955 x(236)#236 + 873 x(237)#237
      + 1018 x(238)#238 + 544 x(239)#239 + 991 x(240)#240 + 661 x(241)#241
      + 897 x(242)#242 + 507 x(243)#243 + 743 x(244)#244 + 781 x(245)#245
      + 504 x(246)#246 + 299 x(247)#247 + 702 x(248)#248 + 364 x(249)#249
Subject To
 c1: 151 x(0)#0 + 768 x(1)#1 + 95 x(2)#2 + 306 x(3)#3 + 125 x(4)#4 + 82 x(5)#5
     + 155 x(6)#6 + 568 x(7)#7 + 351 x(8)#8 + 152 x(9)#9 + 97 x(10)#10
     + 559 x(11)#11 + 777 x(12)#12 + 797 x(13)#13 + 538 x(14)#14 + 159 x(15)#15
     + 331 x(16)#16 + 868 x(17)#17 + 297 x(18)#18 + 378 x(19)#19 + 668 x(20)#20
     + 744 x(21)#21 + 782 x(22)#22 + 341 x(23)#23 + 34 x(24)#24 + 27 x(25)#25
     + 806 x(26)#26 + 549 x(27)#27 + 612 x(28)#28 + 935 x(29)#29 + 539 x(30)#30
     + 921 x(31)#31 + 347 x(32)#32 + 78 x(33)#33 + 660 x(34)#34 + 364 x(35)#35
     + 885 x(36)#36 + 898 x(37)#37 + 182 x(38)#38 + 839 x(39)#39 + 968 x(40)#40
     + 108 x(41)#41 + 598 x(42)#42 + 840 x(43)#43 + 853 x(44)#44 + 621 x(45)#45
     + 643 x(46)#46 + 629 x(47)#47 + 116 x(48)#48 + 110 x(49)#49 + 581 x(50)#50
     + 983 x(51)#51 + 522 x(52)#52 + 775 x(53)#53 + 325 x(54)#54 + 342 x(55)#55
     + 218 x(56)#56 + 90 x(57)#57 + 852 x(58)#58 + 736 x(59)#59 + 129 x(60)#60
     + 541 x(61)#61 + 131 x(62)#62 + 672 x(63)#63 + 888 x(64)#64 + 305 x(65)#65
     + 262 x(66)#66 + 752 x(67)#67 + 735 x(68)#68 + 334 x(69)#69 + 335 x(70)#70
     + 600 x(71)#71 + 182 x(72)#72 + 251 x(73)#73 + 668 x(74)#74 + 530 x(75)#75
     + 931 x(76)#76 + 135 x(77)#77 + 888 x(78)#78 + 947 x(79)#79 + 930 x(80)#80
     + 472 x(81)#81 + 2 x(82)#82 + 985 x(83)#83 + 999 x(84)#84 + 398 x(85)#85
     + 239 x(86)#86 + 436 x(87)#87 + 261 x(88)#88 + 55 x(89)#89 + 544 x(90)#90
     + 790 x(91)#91 + 132 x(92)#92 + 888 x(93)#93 + 612 x(94)#94 + 522 x(95)#95
     + 813 x(96)#96 + 553 x(97)#97 + 875 x(98)#98 + 63 x(99)#99
     + 701 x(100)#100 + 630 x(101)#101 + 864 x(102)#102 + 185 x(103)#103
     + 994 x(104)#104 + 284 x(105)#105 + 276 x(106)#106 + 347 x(107)#107
     + 513 x(108)#108 + 850 x(109)#109 + 874 x(110)#110 + 15 x(111)#111
     + 3 x(112)#112 + 298 x(113)#113 + 630 x(114)#114 + 273 x(115)#115
     + 892 x(116)#116 + 668 x(117)#117 + 980 x(118)#118 + 599 x(119)#119
     + 737 x(120)#120 + 250 x(121)#121 + 634 x(122)#122 + 113 x(123)#123
     + 508 x(124)#124 + 457 x(125)#125 + 637 x(126)#126 + 559 x(127)#127
     + 313 x(128)#128 + 172 x(129)#129 + 668 x(130)#130 + 15 x(131)#131
     + 574 x(132)#132 + 496 x(133)#133 + 431 x(134)#134 + 980 x(135)#135
     + 789 x(136)#136 + 160 x(137)#137 + 189 x(138)#138 + 605 x(139)#139
     + 105 x(140)#140 + 214 x(141)#141 + 312 x(142)#142 + 178 x(143)#143
     + 25 x(144)#144 + 485 x(145)#145 + 569 x(146)#146 + 863 x(147)#147
     + 759 x(148)#148 + 882 x(149)#149 + 883 x(150)#150 + 319 x(151)#151
     + 144 x(152)#152 + 788 x(153)#153 + 601 x(154)#154 + 463 x(155)#155
     + 217 x(156)#156 + 127 x(157)#157 + 742 x(158)#158 + 919 x(159)#159
     + 806 x(160)#160 + 301 x(161)#161 + 145 x(162)#162 + 385 x(163)#163
     + 218 x(164)#164 + 279 x(165)#165 + 580 x(166)#166 + 271 x(167)#167
     + 710 x(168)#168 + 382 x(169)#169 + 137 x(170)#170 + 742 x(171)#171
     + 586 x(172)#172 + 844 x(173)#173 + 795 x(174)#174 + 293 x(175)#175
     + 603 x(176)#176 + 177 x(177)#177 + 421 x(178)#178 + 363 x(179)#179
     + 538 x(180)#180 + 967 x(181)#181 + 933 x(182)#182 + 755 x(183)#183
     + 433 x(184)#184 + 564 x(185)#185 + 958 x(186)#186 + 425 x(187)#187
     + 756 x(188)#188 + 19 x(189)#189 + 345 x(190)#190 + 178 x(191)#191
     + 628 x(192)#192 + 161 x(193)#193 + x(194)#194 + 845 x(195)#195
     + 106 x(196)#196 + 488 x(197)#197 + 737 x(198)#198 + 627 x(199)#199
     + 285 x(200)#200 + 238 x(201)#201 + 645 x(202)#202 + 255 x(203)#203
     + 139 x(204)#204 + 755 x(205)#205 + 331 x(206)#206 + 958 x(207)#207
     + 338 x(208)#208 + 837 x(209)#209 + 280 x(210)#210 + 973 x(211)#211
     + 700 x(212)#212 + 19 x(213)#213 + 994 x(214)#214 + 349 x(215)#215
     + 780 x(216)#216 + 259 x(217)#217 + 481 x(218)#218 + 712 x(219)#219
     + 995 x(220)#220 + 812 x(221)#221 + 508 x(222)#222 + 656 x(223)#223
     + 569 x(224)#224 + 690 x(225)#225 + 733 x(226)#226 + 659 x(227)#227
     + 476 x(228)#228 + 805 x(229)#229 + 436 x(230)#230 + 592 x(231)#231
     + 34 x(232)#232 + 569 x(233)#233 + 972 x(234)#234 + 305 x(235)#235
     + 23 x(236)#236 + 900 x(237)#237 + 272 x(238)#238 + 446 x(239)#239
     + 748 x(240)#240 + 481 x(241)#241 + 739 x(242)#242 + 253 x(243)#243
     + 789 x(244)#244 + 303 x(245)#245 + 809 x(246)#246 + 212 x(247)#247
     + 513 x(248)#248 + 104 x(249)#249 <= 63226
 c2: 906 x(0)#0 + 858 x(1)#1 + 576 x(2)#2 + 426 x(3)#3 + 640 x(4)#4
     + 648 x(5)#5 + 647 x(6)#6 + 448 x(7)#7 + 333 x(8)#8 + 915 x(9)#9
     + 178 x(10)#10 + 78 x(11)#11 + 630 x(12)#12 + 382 x(13)#13 + 629 x(14)#14
     + 999 x(15)#15 + 868 x(16)#16 + 338 x(17)#17 + 27 x(18)#18 + 862 x(19)#19
     + 617 x(20)#20 + 309 x(21)#21 + 275 x(22)#22 + 142 x(23)#23 + 957 x(24)#24
     + 587 x(25)#25 + 190 x(26)#26 + 482 x(27)#27 + 4 x(28)#28 + 735 x(29)#29
     + 185 x(30)#30 + 884 x(31)#31 + 536 x(32)#32 + 528 x(33)#33 + 746 x(34)#34
     + 182 x(35)#35 + 101 x(36)#36 + 428 x(37)#37 + 28 x(38)#38 + 938 x(39)#39
     + 288 x(40)#40 + 829 x(41)#41 + 363 x(42)#42 + 554 x(43)#43 + 382 x(44)#44
     + 261 x(45)#45 + 735 x(46)#46 + 167 x(47)#47 + 654 x(48)#48 + 931 x(49)#49
     + 89 x(50)#50 + 930 x(51)#51 + 247 x(52)#52 + 771 x(53)#53 + 350 x(54)#54
     + 635 x(55)#55 + 520 x(56)#56 + 23 x(57)#57 + 821 x(58)#58 + 157 x(59)#59
     + 848 x(60)#60 + 984 x(61)#61 + 803 x(62)#62 + 862 x(63)#63 + 636 x(64)#64
     + 210 x(65)#65 + 289 x(66)#66 + 263 x(67)#67 + 290 x(68)#68 + 706 x(69)#69
     + 106 x(70)#70 + 56 x(71)#71 + 119 x(72)#72 + 977 x(73)#73 + 23 x(74)#74
     + 417 x(75)#75 + 405 x(76)#76 + 397 x(77)#77 + 935 x(78)#78 + 33 x(79)#79
     + 74 x(80)#80 + 788 x(81)#81 + 143 x(82)#82 + 23 x(83)#83 + 457 x(84)#84
     + 104 x(85)#85 + 557 x(86)#86 + 329 x(87)#87 + 577 x(88)#88 + 897 x(89)#89
     + 980 x(90)#90 + 327 x(91)#91 + 728 x(92)#92 + 301 x(93)#93 + 526 x(94)#94
     + 926 x(95)#95 + 269 x(96)#96 + 288 x(97)#97 + 830 x(98)#98 + 862 x(99)#99
     + 328 x(100)#100 + 244 x(101)#101 + 193 x(102)#102 + 411 x(103)#103
     + 306 x(104)#104 + 759 x(105)#105 + 919 x(106)#106 + 484 x(107)#107
     + 755 x(108)#108 + 774 x(109)#109 + 501 x(110)#110 + 342 x(111)#111
     + 208 x(112)#112 + 669 x(113)#113 + 967 x(114)#114 + 229 x(115)#115
     + 353 x(116)#116 + 484 x(117)#117 + 704 x(118)#118 + 375 x(119)#119
     + 547 x(120)#120 + 441 x(121)#121 + 730 x(122)#122 + 161 x(123)#123
     + 674 x(124)#124 + 240 x(125)#125 + 740 x(126)#126 + 677 x(127)#127
     + 460 x(128)#128 + 202 x(129)#129 + 831 x(130)#130 + 730 x(131)#131
     + 910 x(132)#132 + 704 x(133)#133 + 591 x(134)#134 + 699 x(135)#135
     + 664 x(136)#136 + 166 x(137)#137 + 953 x(138)#138 + 507 x(139)#139
     + 440 x(140)#140 + 744 x(141)#141 + 929 x(142)#142 + 621 x(143)#143
     + 863 x(144)#144 + 230 x(145)#145 + 944 x(146)#146 + 805 x(147)#147
     + 757 x(148)#148 + 367 x(149)#149 + 288 x(150)#150 + 477 x(151)#151
     + 36 x(152)#152 + 942 x(153)#153 + 207 x(154)#154 + 226 x(155)#155
     + 831 x(156)#156 + 791 x(157)#157 + 517 x(158)#158 + 35 x(159)#159
     + 801 x(160)#160 + 752 x(161)#161 + 294 x(162)#162 + 860 x(163)#163
     + 382 x(164)#164 + 31 x(165)#165 + 221 x(166)#166 + 94 x(167)#167
     + 202 x(168)#168 + 856 x(169)#169 + 567 x(170)#170 + 172 x(171)#171
     + 275 x(172)#172 + 243 x(173)#173 + 867 x(174)#174 + 182 x(175)#175
     + 575 x(176)#176 + 183 x(177)#177 + 459 x(178)#178 + 942 x(179)#179
     + 301 x(180)#180 + 417 x(181)#181 + 259 x(182)#182 + 356 x(183)#183
     + 221 x(184)#184 + 586 x(185)#185 + 156 x(186)#186 + 26 x(187)#187
     + 759 x(188)#188 + 995 x(189)#189 + 383 x(190)#190 + 239 x(191)#191
     + 844 x(192)#192 + 866 x(193)#193 + 58 x(194)#194 + 875 x(195)#195
     + 502 x(196)#196 + 610 x(197)#197 + 532 x(198)#198 + 631 x(199)#199
     + 192 x(200)#200 + 771 x(201)#201 + 736 x(202)#202 + 265 x(203)#203
     + 493 x(204)#204 + 111 x(205)#205 + 956 x(206)#206 + 890 x(207)#207
     + 682 x(208)#208 + 136 x(209)#209 + 806 x(210)#210 + 465 x(211)#211
     + 803 x(212)#212 + 737 x(213)#213 + 491 x(214)#214 + 284 x(215)#215
     + 774 x(216)#216 + 147 x(217)#217 + 623 x(218)#218 + 234 x(219)#219
     + 129 x(220)#220 + 29 x(221)#221 + 556 x(222)#222 + 777 x(223)#223
     + 636 x(224)#224 + 296 x(225)#225 + 267 x(226)#226 + 568 x(227)#227
     + 607 x(228)#228 + 335 x(229)#229 + 123 x(230)#230 + 587 x(231)#231
     + 706 x(232)#232 + 985 x(233)#233 + 812 x(234)#234 + 810 x(235)#235
     + 742 x(236)#236 + 931 x(237)#237 + 754 x(238)#238 + 625 x(239)#239
     + 246 x(240)#240 + 752 x(241)#241 + 747 x(242)#242 + 365 x(243)#243
     + 189 x(244)#244 + 481 x(245)#245 + 311 x(246)#246 + 84 x(247)#247
     + 862 x(248)#248 + 227 x(249)#249 <= 63343
 c3: 194 x(0)#0 + 153 x(1)#1 + 726 x(2)#2 + 883 x(3)#3 + 707 x(4)#4
     + 921 x(5)#5 + 562 x(6)#6 + 921 x(7)#7 + 673 x(8)#8 + 666 x(9)#9
     + 448 x(10)#10 + 775 x(11)#11 + 50 x(12)#12 + 796 x(13)#13 + 775 x(14)#14
     + 928 x(15)#15 + 683 x(16)#16 + 462 x(17)#17 + 245 x(18)#18 + 33 x(19)#19
     + 743 x(20)#20 + 818 x(21)#21 + 132 x(22)#22 + 593 x(23)#23 + 953 x(24)#24
     + 339 x(25)#25 + 267 x(26)#26 + 472 x(27)#27 + 271 x(28)#28 + 596 x(29)#29
     + 150 x(30)#30 + 320 x(31)#31 + 596 x(32)#32 + 24 x(33)#33 + 518 x(34)#34
     + 222 x(35)#35 + 660 x(36)#36 + 265 x(37)#37 + 662 x(38)#38 + 679 x(39)#39
     + 29 x(40)#40 + 993 x(41)#41 + 426 x(42)#42 + 314 x(43)#43 + 825 x(44)#44
     + 874 x(45)#45 + 464 x(46)#46 + 90 x(47)#47 + 310 x(48)#48 + 278 x(49)#49
     + 643 x(50)#50 + 952 x(51)#51 + 930 x(52)#52 + 453 x(53)#53 + 395 x(54)#54
     + 42 x(55)#55 + 864 x(56)#56 + 178 x(57)#57 + 727 x(58)#58 + 277 x(59)#59
     + 308 x(60)#60 + 213 x(61)#61 + 870 x(62)#62 + 980 x(63)#63 + 789 x(64)#64
     + 254 x(65)#65 + 816 x(66)#66 + 222 x(67)#67 + 999 x(68)#68 + 182 x(69)#69
     + 543 x(70)#70 + 400 x(71)#71 + 229 x(72)#72 + 382 x(73)#73 + 517 x(74)#74
     + 704 x(75)#75 + 345 x(76)#76 + 988 x(77)#77 + 332 x(78)#78 + 389 x(79)#79
     + 260 x(80)#80 + 481 x(81)#81 + 688 x(82)#82 + 967 x(83)#83 + 404 x(84)#84
     + 531 x(85)#85 + 429 x(86)#86 + 74 x(87)#87 + 760 x(88)#88 + 147 x(89)#89
     + 671 x(90)#90 + 442 x(91)#91 + 116 x(92)#92 + 342 x(93)#93 + 677 x(94)#94
     + 117 x(95)#95 + 109 x(96)#96 + 652 x(97)#97 + 581 x(98)#98 + 731 x(99)#99
     + 460 x(100)#100 + 298 x(101)#101 + 78 x(102)#102 + 278 x(103)#103
     + 707 x(104)#104 + 528 x(105)#105 + 648 x(106)#106 + 513 x(107)#107
     + 801 x(108)#108 + 322 x(109)#109 + 740 x(110)#110 + 266 x(111)#111
     + 869 x(112)#112 + 999 x(113)#113 + 547 x(114)#114 + 800 x(115)#115
     + 315 x(116)#116 + 371 x(117)#117 + 47 x(118)#118 + 563 x(119)#119
     + 225 x(120)#120 + 141 x(121)#121 + 780 x(122)#122 + 485 x(123)#123
     + 777 x(124)#124 + 479 x(125)#125 + 796 x(126)#126 + 540 x(127)#127
     + 965 x(128)#128 + 961 x(129)#129 + 885 x(130)#130 + 877 x(131)#131
     + 236 x(132)#132 + 93 x(133)#133 + 635 x(134)#134 + 791 x(135)#135
     + 198 x(136)#136 + 760 x(137)#137 + 324 x(138)#138 + 981 x(139)#139
     + 768 x(140)#140 + 613 x(141)#141 + 240 x(142)#142 + 57 x(143)#143
     + 81 x(144)#144 + 857 x(145)#145 + 965 x(146)#146 + 681 x(147)#147
     + 665 x(148)#148 + 542 x(149)#149 + 404 x(150)#150 + 435 x(151)#151
     + 452 x(152)#152 + 992 x(153)#153 + 917 x(154)#154 + 672 x(155)#155
     + 130 x(156)#156 + 369 x(157)#157 + 179 x(158)#158 + 113 x(159)#159
     + 67 x(160)#160 + 557 x(161)#161 + 215 x(162)#162 + 227 x(163)#163
     + 205 x(164)#164 + 293 x(165)#165 + 309 x(166)#166 + 317 x(167)#167
     + 814 x(168)#168 + 645 x(169)#169 + 465 x(170)#170 + 92 x(171)#171
     + 744 x(172)#172 + 148 x(173)#173 + 184 x(174)#174 + 691 x(175)#175
     + 376 x(176)#176 + 318 x(177)#177 + 406 x(178)#178 + 587 x(179)#179
     + 213 x(180)#180 + 931 x(181)#181 + 610 x(182)#182 + 748 x(183)#183
     + 400 x(184)#184 + 933 x(185)#185 + 59 x(186)#186 + 705 x(187)#187
     + 167 x(188)#188 + 540 x(189)#189 + 809 x(190)#190 + 60 x(191)#191
     + 201 x(192)#192 + 753 x(193)#193 + 172 x(194)#194 + 631 x(195)#195
     + 473 x(196)#196 + 413 x(197)#197 + 230 x(198)#198 + 358 x(199)#199
     + 668 x(200)#200 + 847 x(201)#201 + 871 x(202)#202 + 574 x(203)#203
     + 753 x(204)#204 + 232 x(205)#205 + 651 x(206)#206 + 454 x(207)#207
     + 842 x(208)#208 + 743 x(209)#209 + 373 x(210)#210 + 167 x(211)#211
     + 871 x(212)#212 + 210 x(213)#213 + 42 x(214)#214 + 380 x(215)#215
     + 637 x(216)#216 + 595 x(217)#217 + 62 x(218)#218 + 801 x(219)#219
     + 336 x(220)#220 + 607 x(221)#221 + 400 x(222)#222 + 965 x(223)#223
     + 222 x(224)#224 + 29 x(225)#225 + 4 x(226)#226 + 840 x(227)#227
     + 295 x(228)#228 + 515 x(229)#229 + 555 x(230)#230 + 707 x(231)#231
     + 246 x(232)#232 + 735 x(233)#233 + 453 x(234)#234 + 362 x(235)#235
     + 665 x(236)#236 + 720 x(237)#237 + 290 x(238)#238 + 459 x(239)#239
     + 872 x(240)#240 + 195 x(241)#241 + 555 x(242)#242 + 811 x(243)#243
     + 775 x(244)#244 + 836 x(245)#245 + 340 x(246)#246 + 108 x(247)#247
     + 803 x(248)#248 + 83 x(249)#249 <= 62710
 c4: 430 x(0)#0 + 616 x(1)#1 + 542 x(2)#2 + 666 x(3)#3 + 693 x(4)#4 + 4 x(5)#5
     + 290 x(6)#6 + 264 x(7)#7 + 302 x(8)#8 + 886 x(9)#9 + 152 x(10)#10
     + 447 x(11)#11 + 175 x(12)#12 + 821 x(13)#13 + 574 x(14)#14 + 845 x(15)#15
     + 540 x(16)#16 + 370 x(17)#17 + 650 x(18)#18 + 252 x(19)#19 + 173 x(20)#20
     + 714 x(21)#21 + 161 x(22)#22 + 138 x(23)#23 + 288 x(24)#24 + 424 x(25)#25
     + 981 x(26)#26 + 281 x(27)#27 + 407 x(28)#28 + 764 x(29)#29 + 306 x(30)#30
     + 828 x(31)#31 + 778 x(32)#32 + 318 x(33)#33 + 840 x(34)#34 + 902 x(35)#35
     + 699 x(36)#36 + 713 x(37)#37 + 174 x(38)#38 + 506 x(39)#39 + 844 x(40)#40
     + 8 x(41)#41 + 978 x(42)#42 + 609 x(43)#43 + 472 x(44)#44 + 442 x(45)#45
     + 515 x(46)#46 + 576 x(47)#47 + 803 x(48)#48 + 716 x(49)#49 + 723 x(50)#50
     + 21 x(51)#51 + 707 x(52)#52 + 282 x(53)#53 + 13 x(54)#54 + 205 x(55)#55
     + 484 x(56)#56 + 350 x(57)#57 + 538 x(58)#58 + 872 x(59)#59 + 644 x(60)#60
     + 76 x(61)#61 + 467 x(62)#62 + 503 x(63)#63 + 603 x(64)#64 + 283 x(65)#65
     + 813 x(66)#66 + 746 x(67)#67 + 384 x(68)#68 + 988 x(69)#69 + 176 x(70)#70
     + 204 x(71)#71 + 515 x(72)#72 + 424 x(73)#73 + 863 x(74)#74 + 418 x(75)#75
     + 863 x(76)#76 + 979 x(77)#77 + 5 x(78)#78 + 800 x(79)#79 + 100 x(80)#80
     + 802 x(81)#81 + 659 x(82)#82 + 235 x(83)#83 + 493 x(84)#84 + 125 x(85)#85
     + 500 x(86)#86 + 196 x(87)#87 + 470 x(88)#88 + 909 x(89)#89 + 645 x(90)#90
     + 649 x(91)#91 + 483 x(92)#92 + 60 x(93)#93 + 837 x(94)#94 + 643 x(95)#95
     + 48 x(96)#96 + 631 x(97)#97 + 896 x(98)#98 + 183 x(99)#99
     + 285 x(100)#100 + 317 x(101)#101 + 442 x(102)#102 + 277 x(103)#103
     + 318 x(104)#104 + 324 x(105)#105 + 886 x(106)#106 + 610 x(107)#107
     + 27 x(108)#108 + 896 x(109)#109 + 516 x(110)#110 + 790 x(111)#111
     + 93 x(112)#112 + 466 x(113)#113 + 925 x(114)#114 + 653 x(115)#115
     + 931 x(116)#116 + 490 x(117)#117 + 70 x(118)#118 + 78 x(119)#119
     + 223 x(120)#120 + 933 x(121)#121 + 190 x(122)#122 + 741 x(123)#123
     + 315 x(124)#124 + 164 x(125)#125 + 575 x(126)#126 + 488 x(127)#127
     + 675 x(128)#128 + 922 x(129)#129 + 278 x(130)#130 + 516 x(131)#131
     + 666 x(132)#132 + 12 x(133)#133 + 419 x(134)#134 + 973 x(135)#135
     + 899 x(136)#136 + 646 x(137)#137 + 279 x(138)#138 + 936 x(139)#139
     + 142 x(140)#140 + 785 x(141)#141 + 897 x(142)#142 + 449 x(143)#143
     + 398 x(144)#144 + 526 x(145)#145 + 134 x(146)#146 + 587 x(147)#147
     + 684 x(148)#148 + 57 x(149)#149 + 940 x(150)#150 + 451 x(151)#151
     + 830 x(152)#152 + 694 x(153)#153 + 285 x(154)#154 + 291 x(155)#155
     + 101 x(156)#156 + 124 x(157)#157 + 916 x(158)#158 + 911 x(159)#159
     + 82 x(160)#160 + 228 x(161)#161 + 840 x(162)#162 + 297 x(163)#163
     + 54 x(164)#164 + 280 x(165)#165 + 627 x(166)#166 + 781 x(167)#167
     + 323 x(168)#168 + 764 x(169)#169 + 266 x(170)#170 + 700 x(171)#171
     + 878 x(172)#172 + 830 x(173)#173 + 531 x(174)#174 + 618 x(175)#175
     + 744 x(176)#176 + 772 x(177)#177 + 664 x(178)#178 + 366 x(179)#179
     + 377 x(180)#180 + 793 x(181)#181 + 701 x(182)#182 + 388 x(183)#183
     + 260 x(184)#184 + 439 x(185)#185 + 498 x(186)#186 + 763 x(187)#187
     + 761 x(188)#188 + 36 x(189)#189 + 929 x(190)#190 + 951 x(191)#191
     + 357 x(192)#192 + 597 x(193)#193 + 383 x(194)#194 + 399 x(195)#195
     + 474 x(196)#196 + 923 x(197)#197 + 195 x(198)#198 + 53 x(199)#199
     + 230 x(200)#200 + 567 x(201)#201 + 991 x(202)#202 + 223 x(203)#203
     + 171 x(204)#204 + 39 x(205)#205 + 105 x(206)#206 + 72 x(207)#207
     + 971 x(208)#208 + 741 x(209)#209 + 41 x(210)#210 + 101 x(211)#211
     + 434 x(212)#212 + 28 x(213)#213 + 481 x(214)#214 + 56 x(215)#215
     + 897 x(216)#216 + 930 x(217)#217 + 550 x(218)#218 + 102 x(219)#219
     + 479 x(220)#220 + 892 x(221)#221 + 455 x(222)#222 + 585 x(223)#223
     + 166 x(224)#224 + 517 x(225)#225 + 930 x(226)#226 + 942 x(227)#227
     + 445 x(228)#228 + 563 x(229)#229 + 17 x(230)#230 + 76 x(231)#231
     + 675 x(232)#232 + 151 x(233)#233 + 519 x(234)#234 + 376 x(235)#235
     + 991 x(236)#236 + 851 x(237)#237 + 686 x(238)#238 + 451 x(239)#239
     + 335 x(240)#240 + 410 x(241)#241 + 483 x(242)#242 + 993 x(243)#243
     + 775 x(244)#244 + 752 x(245)#245 + 712 x(246)#246 + 327 x(247)#247
     + 933 x(248)#248 + 366 x(249)#249 <= 63171
 c5: 383 x(0)#0 + 340 x(1)#1 + 238 x(2)#2 + 740 x(3)#3 + 943 x(4)#4
     + 420 x(5)#5 + 283 x(6)#6 + 987 x(7)#7 + 193 x(8)#8 + 132 x(9)#9
     + 57 x(10)#10 + 954 x(11)#11 + 831 x(12)#12 + 538 x(13)#13 + 827 x(14)#14
     + 357 x(15)#15 + 673 x(16)#16 + 584 x(17)#17 + 31 x(18)#18 + 460 x(19)#19
     + 335 x(20)#20 + 868 x(21)#21 + 436 x(22)#22 + 801 x(23)#23 + 197 x(24)#24
     + 721 x(25)#25 + 583 x(26)#26 + 711 x(27)#27 + 666 x(28)#28 + 10 x(29)#29
     + 279 x(30)#30 + 459 x(31)#31 + 631 x(32)#32 + 60 x(33)#33 + 215 x(34)#34
     + 755 x(35)#35 + 144 x(36)#36 + 769 x(37)#37 + 669 x(38)#38 + 753 x(39)#39
     + 804 x(40)#40 + 196 x(41)#41 + 356 x(42)#42 + 206 x(43)#43 + 212 x(44)#44
     + 64 x(45)#45 + 37 x(46)#46 + 463 x(47)#47 + 661 x(48)#48 + 54 x(49)#49
     + 254 x(50)#50 + 721 x(51)#51 + 725 x(52)#52 + 66 x(53)#53 + 289 x(54)#54
     + 75 x(55)#55 + 776 x(56)#56 + 285 x(57)#57 + 539 x(58)#58 + 79 x(59)#59
     + 223 x(60)#60 + 9 x(61)#61 + 192 x(62)#62 + 592 x(63)#63 + 381 x(64)#64
     + 326 x(65)#65 + 153 x(66)#66 + 171 x(67)#67 + 418 x(68)#68 + 575 x(69)#69
     + 395 x(70)#70 + 461 x(71)#71 + 619 x(72)#72 + 139 x(73)#73 + 886 x(74)#74
     + 489 x(75)#75 + 272 x(76)#76 + 445 x(77)#77 + 467 x(78)#78 + 30 x(79)#79
     + 915 x(80)#80 + 11 x(81)#81 + 883 x(82)#82 + 81 x(83)#83 + 369 x(84)#84
     + 422 x(85)#85 + 790 x(86)#86 + 440 x(87)#87 + 570 x(88)#88 + 470 x(89)#89
     + 586 x(90)#90 + 90 x(91)#91 + 264 x(92)#92 + 467 x(93)#93 + 40 x(94)#94
     + 431 x(95)#95 + 641 x(96)#96 + 291 x(97)#97 + 525 x(98)#98 + 651 x(99)#99
     + 125 x(100)#100 + 951 x(101)#101 + 414 x(102)#102 + 809 x(103)#103
     + 415 x(104)#104 + 756 x(105)#105 + 225 x(106)#106 + 865 x(107)#107
     + 731 x(108)#108 + 338 x(109)#109 + 227 x(110)#110 + 290 x(111)#111
     + 555 x(112)#112 + 766 x(113)#113 + 405 x(114)#114 + 582 x(115)#115
     + 82 x(116)#116 + 551 x(117)#117 + 717 x(118)#118 + 776 x(119)#119
     + 317 x(120)#120 + 843 x(121)#121 + 933 x(122)#122 + 102 x(123)#123
     + 44 x(124)#124 + 624 x(125)#125 + 606 x(126)#126 + 78 x(127)#127
     + 412 x(128)#128 + 890 x(129)#129 + 299 x(130)#130 + 378 x(131)#131
     + 770 x(132)#132 + 944 x(133)#133 + 558 x(134)#134 + 931 x(135)#135
     + 959 x(136)#136 + 388 x(137)#137 + 211 x(138)#138 + 991 x(139)#139
     + 78 x(140)#140 + 870 x(141)#141 + 6 x(142)#142 + 219 x(143)#143
     + 390 x(144)#144 + 111 x(145)#145 + 804 x(146)#146 + 854 x(147)#147
     + 216 x(148)#148 + 934 x(149)#149 + 188 x(150)#150 + 11 x(151)#151
     + 744 x(152)#152 + 525 x(153)#153 + 516 x(154)#154 + 836 x(155)#155
     + 355 x(156)#156 + 193 x(157)#157 + 787 x(158)#158 + 918 x(159)#159
     + 77 x(160)#160 + 308 x(161)#161 + 243 x(162)#162 + 433 x(163)#163
     + 391 x(164)#164 + 466 x(165)#165 + 538 x(166)#166 + 941 x(167)#167
     + 171 x(168)#168 + 933 x(169)#169 + 181 x(170)#170 + 115 x(171)#171
     + 175 x(172)#172 + 801 x(173)#173 + 907 x(174)#174 + 72 x(175)#175
     + 451 x(176)#176 + 159 x(177)#177 + 562 x(178)#178 + 659 x(179)#179
     + 499 x(180)#180 + 450 x(181)#181 + 508 x(182)#182 + 208 x(183)#183
     + 499 x(184)#184 + 651 x(185)#185 + 71 x(186)#186 + 300 x(187)#187
     + 829 x(188)#188 + 517 x(189)#189 + 895 x(190)#190 + 240 x(191)#191
     + 11 x(192)#192 + 816 x(193)#193 + 316 x(194)#194 + 257 x(195)#195
     + 566 x(196)#196 + 670 x(197)#197 + 483 x(198)#198 + 461 x(199)#199
     + 427 x(200)#200 + 303 x(201)#201 + 734 x(202)#202 + 845 x(203)#203
     + 424 x(204)#204 + 60 x(205)#205 + 915 x(206)#206 + 243 x(207)#207
     + 690 x(208)#208 + 573 x(209)#209 + 957 x(210)#210 + 347 x(211)#211
     + 427 x(212)#212 + 452 x(213)#213 + 92 x(214)#214 + 481 x(215)#215
     + 686 x(216)#216 + 678 x(217)#217 + 61 x(218)#218 + 934 x(219)#219
     + 635 x(220)#220 + 109 x(221)#221 + 818 x(222)#222 + 842 x(223)#223
     + 512 x(224)#224 + 471 x(225)#225 + 815 x(226)#226 + 344 x(227)#227
     + 14 x(228)#228 + 803 x(229)#229 + 97 x(230)#230 + 556 x(231)#231
     + 791 x(232)#232 + 961 x(233)#233 + 199 x(234)#234 + 381 x(235)#235
     + 296 x(236)#236 + 510 x(237)#237 + 894 x(238)#238 + 403 x(239)#239
     + 515 x(240)#240 + 34 x(241)#241 + 230 x(242)#242 + 95 x(243)#243
     + 105 x(244)#244 + 387 x(245)#245 + 5 x(246)#246 + 149 x(247)#247
     + 97 x(248)#248 + 309 x(249)#249 <= 57512
Bounds
 0 <= x(0)#0 <= 1
 0 <= x(1)#1 <= 1
 0 <= x(2)#2 <= 1
 0 <= x(3)#3 <= 1
 0 <= x(4)#4 <= 1
 0 <= x(5)#5 <= 1
 0 <= x(6)#6 <= 1
 0 <= x(7)#7 <= 1
 0 <= x(8)#8 <= 1
 0 <= x(9)#9 <= 1
 0 <= x(10)#10 <= 1
 0 <= x(11)#11 <= 1
 0 <= x(12)#12 <= 1
 0 <= x(13)#13 <= 1
 0 <= x(14)#14 <= 1
 0 <= x(15)#15 <= 1
 0 <= x(16)#16 <= 1
 0 <= x(17)#17 <= 1
 0 <= x(18)#18 <= 1
 0 <= x(19)#19 <= 1
 0 <= x(20)#20 <= 1
 0 <= x(21)#21 <= 1
 0 <= x(22)#22 <= 1
 0 <= x(23)#23 <= 1
 0 <= x(24)#24 <= 1
 0 <= x(25)#25 <= 1
 0 <= x(26)#26 <= 1
 0 <= x(27)#27 <= 1
 0 <= x(28)#28 <= 1
 0 <= x(29)#29 <= 1
 0 <= x(30)#30 <= 1
 0 <= x(31)#31 <= 1
 0 <= x(32)#32 <= 1
 0 <= x(33)#33 <= 1
 0 <= x(34)#34 <= 1
 0 <= x(35)#35 <= 1
 0 <= x(36)#36 <= 1
 0 <= x(37)#37 <= 1
 0 <= x(38)#38 <= 1
 0 <= x(39)#39 <= 1
 0 <= x(40)#40 <= 1
 0 <= x(41)#41 <= 1
 0 <= x(42)#42 <= 1
 0 <= x(43)#43 <= 1
 0 <= x(44)#44 <= 1
 0 <= x(45)#45 <= 1
 0 <= x(46)#46 <= 1
 0 <= x(47)#47 <= 1
 0 <= x(48)#48 <= 1
 0 <= x(49)#49 <= 1
 0 <= x(50)#50 <= 1
 0 <= x(51)#51 <= 1
 0 <= x(52)#52 <= 1
 0 <= x(53)#53 <= 1
 0 <= x(54)#54 <= 1
 0 <= x(55)#55 <= 1
 0 <= x(56)#56 <= 1
 0 <= x(57)#57 <= 1
 0 <= x(58)#58 <= 1
 0 <= x(59)#59 <= 1
 0 <= x(60)#60 <= 1
 0 <= x(61)#61 <= 1
 0 <= x(62)#62 <= 1
 0 <= x(63)#63 <= 1
 0 <= x(64)#64 <= 1
 0 <= x(65)#65 <= 1
 0 <= x(66)#66 <= 1
 0 <= x(67)#67 <= 1
 0 <= x(68)#68 <= 1
 0 <= x(69)#69 <= 1
 0 <= x(70)#70 <= 1
 0 <= x(71)#71 <= 1
 0 <= x(72)#72 <= 1
 0 <= x(73)#73 <= 1
 0 <= x(74)#74 <= 1
 0 <= x(75)#75 <= 1
 0 <= x(76)#76 <= 1
 0 <= x(77)#77 <= 1
 0 <= x(78)#78 <= 1
 0 <= x(79)#79 <= 1
 0 <= x(80)#80 <= 1
 0 <= x(81)#81 <= 1
 0 <= x(82)#82 <= 1
 0 <= x(83)#83 <= 1
 0 <= x(84)#84 <= 1
 0 <= x(85)#85 <= 1
 0 <= x(86)#86 <= 1
 0 <= x(87)#87 <= 1
 0 <= x(88)#88 <= 1
 0 <= x(89)#89 <= 1
 0 <= x(90)#90 <= 1
 0 <= x(91)#91 <= 1
 0 <= x(92)#92 <= 1
 0 <= x(93)#93 <= 1
 0 <= x(94)#94 <= 1
 0 <= x(95)#95 <= 1
 0 <= x(96)#96 <= 1
 0 <= x(97)#97 <= 1
 0 <= x(98)#98 <= 1
 0 <= x(99)#99 <= 1
 0 <= x(100)#100 <= 1
 0 <= x(101)#101 <= 1
 0 <= x(102)#102 <= 1
 0 <= x(103)#103 <= 1
 0 <= x(104)#104 <= 1
 0 <= x(105)#105 <= 1
 0 <= x(106)#106 <= 1
 0 <= x(107)#107 <= 1
 0 <= x(108)#108 <= 1
 0 <= x(109)#109 <= 1
 0 <= x(110)#110 <= 1
 0 <= x(111)#111 <= 1
 0 <= x(112)#112 <= 1
 0 <= x(113)#113 <= 1
 0 <= x(114)#114 <= 1
 0 <= x(115)#115 <= 1
 0 <= x(116)#116 <= 1
 0 <= x(117)#117 <= 1
 0 <= x(118)#118 <= 1
 0 <= x(119)#119 <= 1
 0 <= x(120)#120 <= 1
 0 <= x(121)#121 <= 1
 0 <= x(122)#122 <= 1
 0 <= x(123)#123 <= 1
 0 <= x(124)#124 <= 1
 0 <= x(125)#125 <= 1
 0 <= x(126)#126 <= 1
 0 <= x(127)#127 <= 1
 0 <= x(128)#128 <= 1
 0 <= x(129)#129 <= 1
 0 <= x(130)#130 <= 1
 0 <= x(131)#131 <= 1
 0 <= x(132)#132 <= 1
 0 <= x(133)#133 <= 1
 0 <= x(134)#134 <= 1
 0 <= x(135)#135 <= 1
 0 <= x(136)#136 <= 1
 0 <= x(137)#137 <= 1
 0 <= x(138)#138 <= 1
 0 <= x(139)#139 <= 1
 0 <= x(140)#140 <= 1
 0 <= x(141)#141 <= 1
 0 <= x(142)#142 <= 1
 0 <= x(143)#143 <= 1
 0 <= x(144)#144 <= 1
 0 <= x(145)#145 <= 1
 0 <= x(146)#146 <= 1
 0 <= x(147)#147 <= 1
 0 <= x(148)#148 <= 1
 0 <= x(149)#149 <= 1
 0 <= x(150)#150 <= 1
 0 <= x(151)#151 <= 1
 0 <= x(152)#152 <= 1
 0 <= x(153)#153 <= 1
 0 <= x(154)#154 <= 1
 0 <= x(155)#155 <= 1
 0 <= x(156)#156 <= 1
 0 <= x(157)#157 <= 1
 0 <= x(158)#158 <= 1
 0 <= x(159)#159 <= 1
 0 <= x(160)#160 <= 1
 0 <= x(161)#161 <= 1
 0 <= x(162)#162 <= 1
 0 <= x(163)#163 <= 1
 0 <= x(164)#164 <= 1
 0 <= x(165)#165 <= 1
 0 <= x(166)#166 <= 1
 0 <= x(167)#167 <= 1
 0 <= x(168)#168 <= 1
 0 <= x(169)#169 <= 1
 0 <= x(170)#170 <= 1
 0 <= x(171)#171 <= 1
 0 <= x(172)#172 <= 1
 0 <= x(173)#173 <= 1
 0 <= x(174)#174 <= 1
 0 <= x(175)#175 <= 1
 0 <= x(176)#176 <= 1
 0 <= x(177)#177 <= 1
 0 <= x(178)#178 <= 1
 0 <= x(179)#179 <= 1
 0 <= x(180)#180 <= 1
 0 <= x(181)#181 <= 1
 0 <= x(182)#182 <= 1
 0 <= x(183)#183 <= 1
 0 <= x(184)#184 <= 1
 0 <= x(185)#185 <= 1
 0 <= x(186)#186 <= 1
 0 <= x(187)#187 <= 1
 0 <= x(188)#188 <= 1
 0 <= x(189)#189 <= 1
 0 <= x(190)#190 <= 1
 0 <= x(191)#191 <= 1
 0 <= x(192)#192 <= 1
 0 <= x(193)#193 <= 1
 0 <= x(194)#194 <= 1
 0 <= x(195)#195 <= 1
 0 <= x(196)#196 <= 1
 0 <= x(197)#197 <= 1
 0 <= x(198)#198 <= 1
 0 <= x(199)#199 <= 1
 0 <= x(200)#200 <= 1
 0 <= x(201)#201 <= 1
 0 <= x(202)#202 <= 1
 0 <= x(203)#203 <= 1
 0 <= x(204)#204 <= 1
 0 <= x(205)#205 <= 1
 0 <= x(206)#206 <= 1
 0 <= x(207)#207 <= 1
 0 <= x(208)#208 <= 1
 0 <= x(209)#209 <= 1
 0 <= x(210)#210 <= 1
 0 <= x(211)#211 <= 1
 0 <= x(212)#212 <= 1
 0 <= x(213)#213 <= 1
 0 <= x(214)#214 <= 1
 0 <= x(215)#215 <= 1
 0 <= x(216)#216 <= 1
 0 <= x(217)#217 <= 1
 0 <= x(218)#218 <= 1
 0 <= x(219)#219 <= 1
 0 <= x(220)#220 <= 1
 0 <= x(221)#221 <= 1
 0 <= x(222)#222 <= 1
 0 <= x(223)#223 <= 1
 0 <= x(224)#224 <= 1
 0 <= x(225)#225 <= 1
 0 <= x(226)#226 <= 1
 0 <= x(227)#227 <= 1
 0 <= x(228)#228 <= 1
 0 <= x(229)#229 <= 1
 0 <= x(230)#230 <= 1
 0 <= x(231)#231 <= 1
 0 <= x(232)#232 <= 1
 0 <= x(233)#233 <= 1
 0 <= x(234)#234 <= 1
 0 <= x(235)#235 <= 1
 0 <= x(236)#236 <= 1
 0 <= x(237)#237 <= 1
 0 <= x(238)#238 <= 1
 0 <= x(239)#239 <= 1
 0 <= x(240)#240 <= 1
 0 <= x(241)#241 <= 1
 0 <= x(242)#242 <= 1
 0 <= x(243)#243 <= 1
 0 <= x(244)#244 <= 1
 0 <= x(245)#245 <= 1
 0 <= x(246)#246 <= 1
 0 <= x(247)#247 <= 1
 0 <= x(248)#248 <= 1
 0 <= x(249)#249 <= 1
Generals
 x(0)#0  x(1)#1  x(2)#2  x(3)#3  x(4)#4  x(5)#5  x(6)#6  x(7)#7  x(8)#8 
 x(9)#9  x(10)#10  x(11)#11  x(12)#12  x(13)#13  x(14)#14  x(15)#15  x(16)#16 
 x(17)#17  x(18)#18  x(19)#19  x(20)#20  x(21)#21  x(22)#22  x(23)#23 
 x(24)#24  x(25)#25  x(26)#26  x(27)#27  x(28)#28  x(29)#29  x(30)#30 
 x(31)#31  x(32)#32  x(33)#33  x(34)#34  x(35)#35  x(36)#36  x(37)#37 
 x(38)#38  x(39)#39  x(40)#40  x(41)#41  x(42)#42  x(43)#43  x(44)#44 
 x(45)#45  x(46)#46  x(47)#47  x(48)#48  x(49)#49  x(50)#50  x(51)#51 
 x(52)#52  x(53)#53  x(54)#54  x(55)#55  x(56)#56  x(57)#57  x(58)#58 
 x(59)#59  x(60)#60  x(61)#61  x(62)#62  x(63)#63  x(64)#64  x(65)#65 
 x(66)#66  x(67)#67  x(68)#68  x(69)#69  x(70)#70  x(71)#71  x(72)#72 
 x(73)#73  x(74)#74  x(75)#75  x(76)#76  x(77)#77  x(78)#78  x(79)#79 
 x(80)#80  x(81)#81  x(82)#82  x(83)#83  x(84)#84  x(85)#85  x(86)#86 
 x(87)#87  x(88)#88  x(89)#89  x(90)#90  x(91)#91  x(92)#92  x(93)#93 
 x(94)#94  x(95)#95  x(96)#96  x(97)#97  x(98)#98  x(99)#99  x(100)#100 
 x(101)#101  x(102)#102  x(103)#103  x(104)#104  x(105)#105  x(106)#106 
 x(107)#107  x(108)#108  x(109)#109  x(110)#110  x(111)#111  x(112)#112 
 x(113)#113  x(114)#114  x(115)#115  x(116)#116  x(117)#117  x(118)#118 
 x(119)#119  x(120)#120  x(121)#121  x(122)#122  x(123)#123  x(124)#124 
 x(125)#125  x(126)#126  x(127)#127  x(128)#128  x(129)#129  x(130)#130 
 x(131)#131  x(132)#132  x(133)#133  x(134)#134  x(135)#135  x(136)#136 
 x(137)#137  x(138)#138  x(139)#139  x(140)#140  x(141)#141  x(142)#142 
 x(143)#143  x(144)#144  x(145)#145  x(146)#146  x(147)#147  x(148)#148 
 x(149)#149  x(150)#150  x(151)#151  x(152)#152  x(153)#153  x(154)#154 
 x(155)#155  x(156)#156  x(157)#157  x(158)#158  x(159)#159  x(160)#160 
 x(161)#161  x(162)#162  x(163)#163  x(164)#164  x(165)#165  x(166)#166 
 x(167)#167  x(168)#168  x(169)#169  x(170)#170  x(171)#171  x(172)#172 
 x(173)#173  x(174)#174  x(175)#175  x(176)#176  x(177)#177  x(178)#178 
 x(179)#179  x(180)#180  x(181)#181  x(182)#182  x(183)#183  x(184)#184 
 x(185)#185  x(186)#186  x(187)#187  x(188)#188  x(189)#189  x(190)#190 
 x(191)#191  x(192)#192  x(193)#193  x(194)#194  x(195)#195  x(196)#196 
 x(197)#197  x(198)#198  x(199)#199  x(200)#200  x(201)#201  x(202)#202 
 x(203)#203  x(204)#204  x(205)#205  x(206)#206  x(207)#207  x(208)#208 
 x(209)#209  x(210)#210  x(211)#211  x(212)#212  x(213)#213  x(214)#214 
 x(215)#215  x(216)#216  x(217)#217  x(218)#218  x(219)#219  x(220)#220 
 x(221)#221  x(222)#222  x(223)#223  x(224)#224  x(225)#225  x(226)#226 
 x(227)#227  x(228)#228  x(229)#229  x(230)#230  x(231)#231  x(232)#232 
 x(233)#233  x(234)#234  x(235)#235  x(236)#236  x(237)#237  x(238)#238 
 x(239)#239  x(240)#240  x(241)#241  x(242)#242  x(243)#243  x(244)#244 
 x(245)#245  x(246)#246  x(247)#247  x(248)#248  x(249)#249 
End
